\ Model VRPTW_Exato
\ LP format - for model browsing. Use MPS format to capture full model detail.
Minimize
  - 0.01 x_0_0_0 + 0.4949747468305833 x_0_0_1 + 0.6389053137985315 x_0_0_2
   + 0.3891015291668744 x_0_0_3 + 0.7106335201775948 x_0_0_4
   + 0.5852349955359814 x_0_0_5 + 0.3354101966249685 x_0_0_6
   + 0.3905124837953328 x_0_0_7 + 0.5385164807134505 x_0_0_8
   + 0.4949747468305833 x_0_1_0 - 0.01 x_0_1_1 + 0.1523154621172782 x_0_1_2
   + 0.18 x_0_1_3 + 0.223606797749979 x_0_1_4 + 0.25 x_0_1_5
   + 0.206155281280883 x_0_1_6 + 0.1118033988749895 x_0_1_7
   + 0.2121320343559643 x_0_1_8 + 0.4949747468305833 x_0_1_9
   + 0.6389053137985315 x_0_2_0 + 0.1523154621172782 x_0_2_1 - 0.01 x_0_2_2
   + 0.3255764119219941 x_0_2_3 + 0.1456021977856104 x_0_2_4
   + 0.3220248437620923 x_0_2_5 + 0.3220248437620923 x_0_2_6
   + 0.2483948469674844 x_0_2_7 + 0.2102379604162864 x_0_2_8
   + 0.6389053137985315 x_0_2_9 + 0.3891015291668744 x_0_3_0 + 0.18 x_0_3_1
   + 0.3255764119219941 x_0_3_2 - 0.01 x_0_3_3 + 0.3440930106817051 x_0_3_4
   + 0.2022374841615668 x_0_3_5 + 0.2385372088375313 x_0_3_6
   + 0.1640121946685672 x_0_3_7 + 0.3624913792078371 x_0_3_8
   + 0.3891015291668744 x_0_3_9 + 0.7106335201775948 x_0_4_0
   + 0.223606797749979 x_0_4_1 + 0.1456021977856104 x_0_4_2
   + 0.3440930106817051 x_0_4_3 - 0.01 x_0_4_4 + 0.25 x_0_4_5
   + 0.4272001872658766 x_0_4_6 + 0.3354101966249685 x_0_4_7
   + 0.3535533905932738 x_0_4_8 + 0.7106335201775948 x_0_4_9
   + 0.5852349955359814 x_0_5_0 + 0.25 x_0_5_1 + 0.3220248437620923 x_0_5_2
   + 0.2022374841615668 x_0_5_3 + 0.25 x_0_5_4 - 0.01 x_0_5_5
   + 0.4123105625617661 x_0_5_6 + 0.3162277660168379 x_0_5_7
   + 0.4609772228646443 x_0_5_8 + 0.5852349955359814 x_0_5_9
   + 0.3354101966249685 x_0_6_0 + 0.206155281280883 x_0_6_1
   + 0.3220248437620923 x_0_6_2 + 0.2385372088375313 x_0_6_3
   + 0.4272001872658766 x_0_6_4 + 0.4123105625617661 x_0_6_5 - 0.01 x_0_6_6
   + 0.1 x_0_6_7 + 0.206155281280883 x_0_6_8 + 0.3354101966249685 x_0_6_9
   + 0.3905124837953328 x_0_7_0 + 0.1118033988749895 x_0_7_1
   + 0.2483948469674844 x_0_7_2 + 0.1640121946685672 x_0_7_3
   + 0.3354101966249685 x_0_7_4 + 0.3162277660168379 x_0_7_5 + 0.1 x_0_7_6
   - 0.01 x_0_7_7 + 0.206155281280883 x_0_7_8 + 0.3905124837953328 x_0_7_9
   + 0.5385164807134505 x_0_8_0 + 0.2121320343559643 x_0_8_1
   + 0.2102379604162864 x_0_8_2 + 0.3624913792078371 x_0_8_3
   + 0.3535533905932738 x_0_8_4 + 0.4609772228646443 x_0_8_5
   + 0.206155281280883 x_0_8_6 + 0.206155281280883 x_0_8_7 - 0.01 x_0_8_8
   + 0.5385164807134505 x_0_8_9 + 0 x_0_9_0 + 0.4949747468305833 x_0_9_1
   + 0.6389053137985315 x_0_9_2 + 0.3891015291668744 x_0_9_3
   + 0.7106335201775948 x_0_9_4 + 0.5852349955359814 x_0_9_5
   + 0.3354101966249685 x_0_9_6 + 0.3905124837953328 x_0_9_7
   + 0.5385164807134505 x_0_9_8 - 0.01 x_0_9_9
Subject To
 r02_1: x_0_1_1 + x_0_1_2 + x_0_1_3 + x_0_1_4 + x_0_1_5 + x_0_1_6 + x_0_1_7
   + x_0_1_8 + x_0_1_9 = 1
 r02_2: x_0_2_1 + x_0_2_2 + x_0_2_3 + x_0_2_4 + x_0_2_5 + x_0_2_6 + x_0_2_7
   + x_0_2_8 + x_0_2_9 = 1
 r02_3: x_0_3_1 + x_0_3_2 + x_0_3_3 + x_0_3_4 + x_0_3_5 + x_0_3_6 + x_0_3_7
   + x_0_3_8 + x_0_3_9 = 1
 r02_4: x_0_4_1 + x_0_4_2 + x_0_4_3 + x_0_4_4 + x_0_4_5 + x_0_4_6 + x_0_4_7
   + x_0_4_8 + x_0_4_9 = 1
 r02_5: x_0_5_1 + x_0_5_2 + x_0_5_3 + x_0_5_4 + x_0_5_5 + x_0_5_6 + x_0_5_7
   + x_0_5_8 + x_0_5_9 = 1
 r02_6: x_0_6_1 + x_0_6_2 + x_0_6_3 + x_0_6_4 + x_0_6_5 + x_0_6_6 + x_0_6_7
   + x_0_6_8 + x_0_6_9 = 1
 r02_7: x_0_7_1 + x_0_7_2 + x_0_7_3 + x_0_7_4 + x_0_7_5 + x_0_7_6 + x_0_7_7
   + x_0_7_8 + x_0_7_9 = 1
 r02_8: x_0_8_1 + x_0_8_2 + x_0_8_3 + x_0_8_4 + x_0_8_5 + x_0_8_6 + x_0_8_7
   + x_0_8_8 + x_0_8_9 = 1
 r10_0: x_0_0_1 + x_0_0_2 + x_0_0_3 + x_0_0_4 + x_0_0_5 + x_0_0_6 + x_0_0_7
   + x_0_0_8 + x_0_0_9 = 1
 r06_0: x_0_0_9 + x_0_1_9 + x_0_2_9 + x_0_3_9 + x_0_4_9 + x_0_5_9 + x_0_6_9
   + x_0_7_9 + x_0_8_9 = 1
 r_UTW_0: = 1
 r_UTW_1: y_1_0 = 1
 r_UTW_2: y_2_0 = 1
 r_UTW_3: y_3_0 = 1
 r_UTW_4: y_4_0 = 1
 r_UTW_5: y_5_0 = 1
 r_UTW_6: y_6_0 = 1
 r_UTW_7: y_7_0 = 1
 r_UTW_8: y_8_0 = 1
 r_UTW_9: = 1
 r03capaci_0: 10 x_0_0_2 + 7 x_0_0_3 + 13 x_0_0_4 + 19 x_0_0_5 + 26 x_0_0_6
   + 3 x_0_0_7 + 5 x_0_0_8 + 10 x_0_1_2 + 7 x_0_1_3 + 13 x_0_1_4
   + 19 x_0_1_5 + 26 x_0_1_6 + 3 x_0_1_7 + 5 x_0_1_8 + 10 x_0_2_2
   + 7 x_0_2_3 + 13 x_0_2_4 + 19 x_0_2_5 + 26 x_0_2_6 + 3 x_0_2_7
   + 5 x_0_2_8 + 10 x_0_3_2 + 7 x_0_3_3 + 13 x_0_3_4 + 19 x_0_3_5
   + 26 x_0_3_6 + 3 x_0_3_7 + 5 x_0_3_8 + 10 x_0_4_2 + 7 x_0_4_3
   + 13 x_0_4_4 + 19 x_0_4_5 + 26 x_0_4_6 + 3 x_0_4_7 + 5 x_0_4_8
   + 10 x_0_5_2 + 7 x_0_5_3 + 13 x_0_5_4 + 19 x_0_5_5 + 26 x_0_5_6
   + 3 x_0_5_7 + 5 x_0_5_8 + 10 x_0_6_2 + 7 x_0_6_3 + 13 x_0_6_4
   + 19 x_0_6_5 + 26 x_0_6_6 + 3 x_0_6_7 + 5 x_0_6_8 + 10 x_0_7_2
   + 7 x_0_7_3 + 13 x_0_7_4 + 19 x_0_7_5 + 26 x_0_7_6 + 3 x_0_7_7
   + 5 x_0_7_8 + 10 x_0_8_2 + 7 x_0_8_3 + 13 x_0_8_4 + 19 x_0_8_5
   + 26 x_0_8_6 + 3 x_0_8_7 + 5 x_0_8_8 <= 3000
 r05_0_1: x_0_0_1 - x_0_1_2 - x_0_1_3 - x_0_1_4 - x_0_1_5 - x_0_1_6
   - x_0_1_7 - x_0_1_8 - x_0_1_9 + x_0_2_1 + x_0_3_1 + x_0_4_1 + x_0_5_1
   + x_0_6_1 + x_0_7_1 + x_0_8_1 = 0
 r05_0_2: x_0_0_2 + x_0_1_2 - x_0_2_1 - x_0_2_3 - x_0_2_4 - x_0_2_5
   - x_0_2_6 - x_0_2_7 - x_0_2_8 - x_0_2_9 + x_0_3_2 + x_0_4_2 + x_0_5_2
   + x_0_6_2 + x_0_7_2 + x_0_8_2 = 0
 r05_0_3: x_0_0_3 + x_0_1_3 + x_0_2_3 - x_0_3_1 - x_0_3_2 - x_0_3_4
   - x_0_3_5 - x_0_3_6 - x_0_3_7 - x_0_3_8 - x_0_3_9 + x_0_4_3 + x_0_5_3
   + x_0_6_3 + x_0_7_3 + x_0_8_3 = 0
 r05_0_4: x_0_0_4 + x_0_1_4 + x_0_2_4 + x_0_3_4 - x_0_4_1 - x_0_4_2
   - x_0_4_3 - x_0_4_5 - x_0_4_6 - x_0_4_7 - x_0_4_8 - x_0_4_9 + x_0_5_4
   + x_0_6_4 + x_0_7_4 + x_0_8_4 = 0
 r05_0_5: x_0_0_5 + x_0_1_5 + x_0_2_5 + x_0_3_5 + x_0_4_5 - x_0_5_1
   - x_0_5_2 - x_0_5_3 - x_0_5_4 - x_0_5_6 - x_0_5_7 - x_0_5_8 - x_0_5_9
   + x_0_6_5 + x_0_7_5 + x_0_8_5 = 0
 r05_0_6: x_0_0_6 + x_0_1_6 + x_0_2_6 + x_0_3_6 + x_0_4_6 + x_0_5_6
   - x_0_6_1 - x_0_6_2 - x_0_6_3 - x_0_6_4 - x_0_6_5 - x_0_6_7 - x_0_6_8
   - x_0_6_9 + x_0_7_6 + x_0_8_6 = 0
 r05_0_7: x_0_0_7 + x_0_1_7 + x_0_2_7 + x_0_3_7 + x_0_4_7 + x_0_5_7
   + x_0_6_7 - x_0_7_1 - x_0_7_2 - x_0_7_3 - x_0_7_4 - x_0_7_5 - x_0_7_6
   - x_0_7_8 - x_0_7_9 + x_0_8_7 = 0
 r05_0_8: x_0_0_8 + x_0_1_8 + x_0_2_8 + x_0_3_8 + x_0_4_8 + x_0_5_8
   + x_0_6_8 + x_0_7_8 - x_0_8_1 - x_0_8_2 - x_0_8_3 - x_0_8_4 - x_0_8_5
   - x_0_8_6 - x_0_8_7 - x_0_8_9 = 0
 r07_0_0_1: 9999 x_0_0_1 + s_0 - s_1 <= 9998.505025253169
 r07_0_0_2: 9999 x_0_0_2 + s_0 - s_2 <= 9998.361094686201
 r07_0_0_3: 9999 x_0_0_3 + s_0 - s_3 <= 9998.610898470833
 r07_0_0_4: 9999 x_0_0_4 + s_0 - s_4 <= 9998.289366479823
 r07_0_0_5: 9999 x_0_0_5 + s_0 - s_5 <= 9998.414765004463
 r07_0_0_6: 9999 x_0_0_6 + s_0 - s_6 <= 9998.664589803375
 r07_0_0_7: 9999 x_0_0_7 + s_0 - s_7 <= 9998.609487516205
 r07_0_0_8: 9999 x_0_0_8 + s_0 - s_8 <= 9998.461483519286
 r07_0_0_9: 9999 x_0_0_9 + s_0 - s_9 <= 9999
 r07_0_1_1: 9999 x_0_1_1 <= 9999.01
 r07_0_1_2: 9999 x_0_1_2 + s_1 - s_2 <= 9998.847684537883
 r07_0_1_3: 9999 x_0_1_3 + s_1 - s_3 <= 9998.82
 r07_0_1_4: 9999 x_0_1_4 + s_1 - s_4 <= 9998.77639320225
 r07_0_1_5: 9999 x_0_1_5 + s_1 - s_5 <= 9998.75
 r07_0_1_6: 9999 x_0_1_6 + s_1 - s_6 <= 9998.793844718719
 r07_0_1_7: 9999 x_0_1_7 + s_1 - s_7 <= 9998.888196601125
 r07_0_1_8: 9999 x_0_1_8 + s_1 - s_8 <= 9998.787867965644
 r07_0_1_9: 9999 x_0_1_9 + s_1 - s_9 <= 9998.505025253169
 r07_0_2_1: 9999 x_0_2_1 - s_1 + s_2 <= 9998.847684537883
 r07_0_2_2: 9999 x_0_2_2 <= 9999.01
 r07_0_2_3: 9999 x_0_2_3 + s_2 - s_3 <= 9998.674423588078
 r07_0_2_4: 9999 x_0_2_4 + s_2 - s_4 <= 9998.854397802213
 r07_0_2_5: 9999 x_0_2_5 + s_2 - s_5 <= 9998.677975156237
 r07_0_2_6: 9999 x_0_2_6 + s_2 - s_6 <= 9998.677975156237
 r07_0_2_7: 9999 x_0_2_7 + s_2 - s_7 <= 9998.751605153033
 r07_0_2_8: 9999 x_0_2_8 + s_2 - s_8 <= 9998.789762039583
 r07_0_2_9: 9999 x_0_2_9 + s_2 - s_9 <= 9998.361094686201
 r07_0_3_1: 9999 x_0_3_1 - s_1 + s_3 <= 9998.82
 r07_0_3_2: 9999 x_0_3_2 - s_2 + s_3 <= 9998.674423588078
 r07_0_3_3: 9999 x_0_3_3 <= 9999.01
 r07_0_3_4: 9999 x_0_3_4 + s_3 - s_4 <= 9998.655906989319
 r07_0_3_5: 9999 x_0_3_5 + s_3 - s_5 <= 9998.797762515838
 r07_0_3_6: 9999 x_0_3_6 + s_3 - s_6 <= 9998.761462791163
 r07_0_3_7: 9999 x_0_3_7 + s_3 - s_7 <= 9998.835987805331
 r07_0_3_8: 9999 x_0_3_8 + s_3 - s_8 <= 9998.637508620792
 r07_0_3_9: 9999 x_0_3_9 + s_3 - s_9 <= 9998.610898470833
 r07_0_4_1: 9999 x_0_4_1 - s_1 + s_4 <= 9998.77639320225
 r07_0_4_2: 9999 x_0_4_2 - s_2 + s_4 <= 9998.854397802213
 r07_0_4_3: 9999 x_0_4_3 - s_3 + s_4 <= 9998.655906989319
 r07_0_4_4: 9999 x_0_4_4 <= 9999.01
 r07_0_4_5: 9999 x_0_4_5 + s_4 - s_5 <= 9998.75
 r07_0_4_6: 9999 x_0_4_6 + s_4 - s_6 <= 9998.572799812735
 r07_0_4_7: 9999 x_0_4_7 + s_4 - s_7 <= 9998.664589803375
 r07_0_4_8: 9999 x_0_4_8 + s_4 - s_8 <= 9998.646446609408
 r07_0_4_9: 9999 x_0_4_9 + s_4 - s_9 <= 9998.289366479823
 r07_0_5_1: 9999 x_0_5_1 - s_1 + s_5 <= 9998.75
 r07_0_5_2: 9999 x_0_5_2 - s_2 + s_5 <= 9998.677975156237
 r07_0_5_3: 9999 x_0_5_3 - s_3 + s_5 <= 9998.797762515838
 r07_0_5_4: 9999 x_0_5_4 - s_4 + s_5 <= 9998.75
 r07_0_5_5: 9999 x_0_5_5 <= 9999.01
 r07_0_5_6: 9999 x_0_5_6 + s_5 - s_6 <= 9998.587689437438
 r07_0_5_7: 9999 x_0_5_7 + s_5 - s_7 <= 9998.683772233982
 r07_0_5_8: 9999 x_0_5_8 + s_5 - s_8 <= 9998.539022777135
 r07_0_5_9: 9999 x_0_5_9 + s_5 - s_9 <= 9998.414765004463
 r07_0_6_1: 9999 x_0_6_1 - s_1 + s_6 <= 9998.793844718719
 r07_0_6_2: 9999 x_0_6_2 - s_2 + s_6 <= 9998.677975156237
 r07_0_6_3: 9999 x_0_6_3 - s_3 + s_6 <= 9998.761462791163
 r07_0_6_4: 9999 x_0_6_4 - s_4 + s_6 <= 9998.572799812735
 r07_0_6_5: 9999 x_0_6_5 - s_5 + s_6 <= 9998.587689437438
 r07_0_6_6: 9999 x_0_6_6 <= 9999.01
 r07_0_6_7: 9999 x_0_6_7 + s_6 - s_7 <= 9998.9
 r07_0_6_8: 9999 x_0_6_8 + s_6 - s_8 <= 9998.793844718719
 r07_0_6_9: 9999 x_0_6_9 + s_6 - s_9 <= 9998.664589803375
 r07_0_7_1: 9999 x_0_7_1 - s_1 + s_7 <= 9998.888196601125
 r07_0_7_2: 9999 x_0_7_2 - s_2 + s_7 <= 9998.751605153033
 r07_0_7_3: 9999 x_0_7_3 - s_3 + s_7 <= 9998.835987805331
 r07_0_7_4: 9999 x_0_7_4 - s_4 + s_7 <= 9998.664589803375
 r07_0_7_5: 9999 x_0_7_5 - s_5 + s_7 <= 9998.683772233982
 r07_0_7_6: 9999 x_0_7_6 - s_6 + s_7 <= 9998.9
 r07_0_7_7: 9999 x_0_7_7 <= 9999.01
 r07_0_7_8: 9999 x_0_7_8 + s_7 - s_8 <= 9998.793844718719
 r07_0_7_9: 9999 x_0_7_9 + s_7 - s_9 <= 9998.609487516205
 r07_0_8_1: 9999 x_0_8_1 - s_1 + s_8 <= 9998.787867965644
 r07_0_8_2: 9999 x_0_8_2 - s_2 + s_8 <= 9998.789762039583
 r07_0_8_3: 9999 x_0_8_3 - s_3 + s_8 <= 9998.637508620792
 r07_0_8_4: 9999 x_0_8_4 - s_4 + s_8 <= 9998.646446609408
 r07_0_8_5: 9999 x_0_8_5 - s_5 + s_8 <= 9998.539022777135
 r07_0_8_6: 9999 x_0_8_6 - s_6 + s_8 <= 9998.793844718719
 r07_0_8_7: 9999 x_0_8_7 - s_7 + s_8 <= 9998.793844718719
 r07_0_8_8: 9999 x_0_8_8 <= 9999.01
 r07_0_8_9: 9999 x_0_8_9 + s_8 - s_9 <= 9998.461483519286
 r08a_1_0: s_1 - 9999 y_1_0 >= -9999
 r08b_1_0: s_1 + 9999 y_1_0 <= 19998
 r08a_2_0: s_2 - 9999 y_2_0 >= -9999
 r08b_2_0: s_2 + 9999 y_2_0 <= 19998
 r08a_3_0: s_3 - 9999 y_3_0 >= -9999
 r08b_3_0: s_3 + 9999 y_3_0 <= 19998
 r08a_4_0: s_4 - 9999 y_4_0 >= -9999
 r08b_4_0: s_4 + 9999 y_4_0 <= 19998
 r08a_5_0: s_5 - 9999 y_5_0 >= -9999
 r08b_5_0: s_5 + 9999 y_5_0 <= 19998
 r08a_6_0: s_6 - 9999 y_6_0 >= -9999
 r08b_6_0: s_6 + 9999 y_6_0 <= 19998
 r08a_7_0: s_7 - 9999 y_7_0 >= -9999
 r08b_7_0: s_7 + 9999 y_7_0 <= 19998
 r08a_8_0: s_8 - 9999 y_8_0 >= -9999
 r08b_8_0: s_8 + 9999 y_8_0 <= 19998
 zerando_ij: x_0_0_0 + x_0_1_1 + x_0_2_2 + x_0_3_3 + x_0_4_4 + x_0_5_5
   + x_0_6_6 + x_0_7_7 + x_0_8_8 + x_0_9_9 = 0
 zerando_s0: s_0 = 0
Bounds
Binaries
 x_0_0_0 x_0_0_1 x_0_0_2 x_0_0_3 x_0_0_4 x_0_0_5 x_0_0_6 x_0_0_7 x_0_0_8
 x_0_0_9 x_0_1_0 x_0_1_1 x_0_1_2 x_0_1_3 x_0_1_4 x_0_1_5 x_0_1_6 x_0_1_7
 x_0_1_8 x_0_1_9 x_0_2_0 x_0_2_1 x_0_2_2 x_0_2_3 x_0_2_4 x_0_2_5 x_0_2_6
 x_0_2_7 x_0_2_8 x_0_2_9 x_0_3_0 x_0_3_1 x_0_3_2 x_0_3_3 x_0_3_4 x_0_3_5
 x_0_3_6 x_0_3_7 x_0_3_8 x_0_3_9 x_0_4_0 x_0_4_1 x_0_4_2 x_0_4_3 x_0_4_4
 x_0_4_5 x_0_4_6 x_0_4_7 x_0_4_8 x_0_4_9 x_0_5_0 x_0_5_1 x_0_5_2 x_0_5_3
 x_0_5_4 x_0_5_5 x_0_5_6 x_0_5_7 x_0_5_8 x_0_5_9 x_0_6_0 x_0_6_1 x_0_6_2
 x_0_6_3 x_0_6_4 x_0_6_5 x_0_6_6 x_0_6_7 x_0_6_8 x_0_6_9 x_0_7_0 x_0_7_1
 x_0_7_2 x_0_7_3 x_0_7_4 x_0_7_5 x_0_7_6 x_0_7_7 x_0_7_8 x_0_7_9 x_0_8_0
 x_0_8_1 x_0_8_2 x_0_8_3 x_0_8_4 x_0_8_5 x_0_8_6 x_0_8_7 x_0_8_8 x_0_8_9
 x_0_9_0 x_0_9_1 x_0_9_2 x_0_9_3 x_0_9_4 x_0_9_5 x_0_9_6 x_0_9_7 x_0_9_8
 x_0_9_9 y_1_0 y_2_0 y_3_0 y_4_0 y_5_0 y_6_0 y_7_0 y_8_0
End
